letting n =  10
letting blocks =  [[1, 4], [1, 6], [1, 8], [1, 10], [2, 2], [2, 4], [2, 5], [2, 6], [2, 8], [2, 9], [3, 4], [3, 6], [3, 7], [3, 9], [4, 3], [4, 7], [4, 8], [4, 10], [5, 3], [5, 4], [5, 6], [5, 8], [5, 9], [6, 1], [6, 3], [6, 7], [6, 10], [7, 1], [7, 2], [7, 5], [7, 7], [7, 10], [8, 2], [8, 3], [8, 4], [8, 5], [8, 7], [8, 8], [9, 2], [9, 5], [9, 6], [9, 7], [9, 9], [9, 10], [10, 3], [10, 5], [10, 8], [10, 9]]
